Default variable names x1, x2 ... being created.
Default row names c1, c2 ... being created.
Tried aggregator 1 time.
Reduced MIP has 4100 rows, 180 columns, and 8288 nonzeros.
Reduced MIP has 180 binaries, 0 generals, 0 SOSs, and 0 indicators.
Presolve time = 0.02 sec. (10.19 ticks)
Found incumbent of value 0.000000 after 0.02 sec. (12.39 ticks)
Probing fixed 39 vars, tightened 0 bounds.
Probing time = 0.00 sec. (1.47 ticks)
Tried aggregator 1 time.
MIP Presolve eliminated 1938 rows and 39 columns.
Reduced MIP has 2162 rows, 141 columns, and 4412 nonzeros.
Reduced MIP has 141 binaries, 0 generals, 0 SOSs, and 0 indicators.
Presolve time = 0.01 sec. (6.16 ticks)
Probing time = 0.00 sec. (0.87 ticks)
Tried aggregator 1 time.
Reduced MIP has 2162 rows, 141 columns, and 4412 nonzeros.
Reduced MIP has 141 binaries, 0 generals, 0 SOSs, and 0 indicators.
Presolve time = 0.00 sec. (5.40 ticks)
Probing time = 0.00 sec. (0.87 ticks)
Clique table members: 2443.
MIP emphasis: balance optimality and feasibility.
MIP search method: dynamic search.
Parallel mode: deterministic, using up to 4 threads.
Root relaxation solution time = 0.03 sec. (10.44 ticks)

        Nodes                                         Cuts/
   Node  Left     Objective  IInf  Best Integer    Best Bound    ItCnt     Gap

*     0+    0                            0.0000       51.0000              --- 
      0     0       25.5000   141        0.0000       25.5000      234     --- 
*     0+    0                            1.0000       25.5000              --- 
      0     0        cutoff              1.0000        1.0000      250    0.00%
Elapsed time = 0.49 sec. (352.07 ticks, tree = 0.00 MB, solutions = 2)

Clique cuts applied:  640

Root node processing (before b&c):
  Real time             =    0.49 sec. (352.09 ticks)
Parallel b&c, 4 threads:
  Real time             =    0.00 sec. (0.00 ticks)
  Sync time (average)   =    0.00 sec.
  Wait time (average)   =    0.00 sec.
                          ------------
Total (root+branch&cut) =    0.49 sec. (352.09 ticks)
Default variable names x1, x2 ... being created.
Default row names c1, c2 ... being created.
Tried aggregator 1 time.
Reduced MIP has 4100 rows, 180 columns, and 8288 nonzeros.
Reduced MIP has 180 binaries, 0 generals, 0 SOSs, and 0 indicators.
Presolve time = 0.02 sec. (10.19 ticks)
Found incumbent of value 0.000000 after 0.02 sec. (12.39 ticks)
Probing time = 0.00 sec. (0.96 ticks)
Tried aggregator 1 time.
Reduced MIP has 4100 rows, 180 columns, and 8288 nonzeros.
Reduced MIP has 180 binaries, 0 generals, 0 SOSs, and 0 indicators.
Presolve time = 0.01 sec. (10.19 ticks)
Probing time = 0.00 sec. (0.96 ticks)
Clique table members: 4099.
MIP emphasis: balance optimality and feasibility.
MIP search method: dynamic search.
Parallel mode: deterministic, using up to 4 threads.
Root relaxation solution time = 0.05 sec. (16.71 ticks)

        Nodes                                         Cuts/
   Node  Left     Objective  IInf  Best Integer    Best Bound    ItCnt     Gap

*     0+    0                            0.0000       90.0000              --- 
      0     0       63.0000   180        0.0000       63.0000      262     --- 
*     0+    0                            2.0000       63.0000              --- 
      0     0       62.3697   179        2.0000       Cuts: 2      421     --- 
      0     0       61.7408   179        2.0000       Cuts: 3      548     --- 
      0     0       61.7383   179        2.0000   ZeroHalf: 1      575     --- 
      0     0       61.7197   179        2.0000   ZeroHalf: 2      615     --- 
      0     2       61.7197   179        2.0000       60.5588      615     --- 
Elapsed time = 0.99 sec. (714.94 ticks, tree = 0.00 MB, solutions = 2)
     73    44       25.4096   120        2.0000       60.0000     5722     --- 
    327   265       25.5556   112        2.0000       55.2097    11143     --- 
    581   441        cutoff              2.0000       49.1429    18024     --- 
    862   662        cutoff              2.0000       43.6087    24027     --- 
   1071   828        cutoff              2.0000       41.1489    29370     --- 
   1427  1099        cutoff              2.0000       35.6098    37245     --- 
   1503  1085        cutoff              2.0000       31.3220    46249     --- 
   1675  1136        cutoff              2.0000       23.9118    54237     --- 
   1866  1178        cutoff              2.0000       21.7209    62660  986.05%
   2767  1504        6.0606    76        2.0000       14.5714    94666  628.57%
Elapsed time = 5.40 sec. (3897.89 ticks, tree = 29.08 MB, solutions = 2)
   3754  1966       60.8365   177        2.0000       10.4225   119486  421.13%
   3771   676       58.4308   172        2.0000       10.4225   122535  421.13%
   4165   257        4.2000    53        2.0000       10.4225   137384  421.13%
   4933   679        cutoff              2.0000       10.4225   162729  421.13%
   5850   987        cutoff              2.0000       10.4225   190789  421.13%
   6807   894        cutoff              2.0000        6.8254   219945  241.27%

Zero-half cuts applied:  2
Gomory fractional cuts applied:  5

Root node processing (before b&c):
  Real time             =    0.98 sec. (713.29 ticks)
Parallel b&c, 4 threads:
  Real time             =   12.66 sec. (10311.27 ticks)
  Sync time (average)   =    1.36 sec.
  Wait time (average)   =    1.40 sec.
                          ------------
Total (root+branch&cut) =   13.64 sec. (11024.55 ticks)
